Ipopt 3.12.8: 

******************************************************************************
This program contains Ipopt, a library for large-scale nonlinear optimization.
 Ipopt is released as open source code under the Eclipse Public License (EPL).
         For more information visit http://projects.coin-or.org/Ipopt
******************************************************************************

This is Ipopt version 3.12.8, running with linear solver ma27.

Number of nonzeros in equality constraint Jacobian...:        0
Number of nonzeros in inequality constraint Jacobian.:        0
Number of nonzeros in Lagrangian Hessian.............:       39

Total number of variables............................:       20
                     variables with only lower bounds:        0
                variables with lower and upper bounds:        0
                     variables with only upper bounds:        0
Total number of equality constraints.................:        0
Total number of inequality constraints...............:        0
        inequality constraints with only lower bounds:        0
   inequality constraints with lower and upper bounds:        0
        inequality constraints with only upper bounds:        0

iter    objective    inf_pr   inf_du lg(mu)  ||d||  lg(rg) alpha_du alpha_pr  ls
   0  4.0000000e+00 0.00e+00 4.00e+00  -1.0 0.00e+00    -  0.00e+00 0.00e+00   0
   1  3.9866256e+00 0.00e+00 4.40e-02  -1.0 6.64e-03    -  1.00e+00 1.00e+00f  1
   2  3.9866239e+00 0.00e+00 5.74e-06  -2.5 7.67e-05    -  1.00e+00 1.00e+00f  1
   3  3.9866239e+00 0.00e+00 8.57e-14  -8.6 1.02e-08    -  1.00e+00 1.00e+00f  1

Number of Iterations....: 3

                                   (scaled)                 (unscaled)
Objective...............:   3.9866238542611989e+00    3.9866238542611989e+00
Dual infeasibility......:   8.5723095288869899e-14    8.5723095288869899e-14
Constraint violation....:   0.0000000000000000e+00    0.0000000000000000e+00
Complementarity.........:   0.0000000000000000e+00    0.0000000000000000e+00
Overall NLP error.......:   8.5723095288869899e-14    8.5723095288869899e-14


Number of objective function evaluations             = 4
Number of objective gradient evaluations             = 4
Number of equality constraint evaluations            = 0
Number of inequality constraint evaluations          = 0
Number of equality constraint Jacobian evaluations   = 0
Number of inequality constraint Jacobian evaluations = 0
Number of Lagrangian Hessian evaluations             = 3
Total CPU secs in IPOPT (w/o function evaluations)   =      0.004
Total CPU secs in NLP function evaluations           =      0.000

EXIT: Optimal Solution Found.
obj = 3.98662

X [*] :=
 1  -0.993286
 2   0.996651
 3   0.99833
 4   0.999168
 5   0.999585
 6   0.999793
 7   0.999897
 8   0.999949
 9   0.999974
10   0.999987
11   0.999994
12   0.999997
13   0.999998
14   0.999999
15   0.999999
16   0.999999
17   0.999999
18   0.999997
19   0.999995
20   0.999989
;

